db/inputs/231684489310223070774797047160427799.smt2
(set-logic QF_FP)
(declare-const x0 (_ FloatingPoint 11 53))
(declare-const x1 (_ FloatingPoint 11 53))
(declare-const x2 (_ FloatingPoint 11 53))
(declare-const x3 (_ FloatingPoint 11 53))
(declare-const x4 (_ FloatingPoint 11 53))
(declare-const x5 (_ FloatingPoint 11 53))
(declare-const x6 (_ FloatingPoint 11 53))
(declare-const x7 (_ FloatingPoint 11 53))
(declare-const x8 (_ FloatingPoint 11 53))
(assert (fp.eq (fp.sub RNE x3 x7) (fp.add RNE x6 x8)))
(assert (fp.leq (fp.neg x7) (fp.neg x7)))
(assert (fp.leq (fp.mul RNE x4 x2) (fp.div RNE x5 x8)))
(assert (fp.lt (fp.mul RNE x5 x2) (fp.add RNE x6 x3)))
(assert (fp.geq (fp.mul RNE x6 x3) (fp.div RNE x2 x4)))
(check-sat)
