db/data/231684489310223070774797047160427799.z3.out
sat
-------------------
406.367476798
